data/CVRPLIB/Vrp-Set-XML100/instances/XML100_1213_08.vrp
NAME : XML100_1213_08
COMMENT : Generated by Queiroga, Sadykov, Uchoa, and Vidal (2021)
TYPE : CVRP
DIMENSION : 101
EDGE_WEIGHT_TYPE : EUC_2D
CAPACITY : 9
NODE_COORD_SECTION
1    528  358 
2    603  160 
3    106  542 
4    626  140 
5    102  678 
6    661  310 
7    595  463 
8    31   694 
9    699  241 
10   78   911 
11   625  337 
12   475  384 
13   662  411 
14   647  390 
15   197  366 
16   104  733 
17   668  270 
18   454  460 
19   613  375 
20   37   657 
21   35   564 
22   103  676 
23   521  509 
24   10   603 
25   685  253 
26   643  423 
27   3    772 
28   580  350 
29   121  509 
30   35   761 
31   89   740 
32   531  282 
33   36   657 
34   746  367 
35   100  734 
36   569  415 
37   607  319 
38   729  238 
39   747  370 
40   539  297 
41   621  354 
42   653  408 
43   603  461 
44   592  54  
45   591  102 
46   4    586 
47   43   683 
48   624  387 
49   624  328 
50   777  443 
51   21   741 
52   675  238 
53   514  304 
54   663  368 
55   24   658 
56   64   633 
57   649  362 
58   66   717 
59   672  272 
60   96   701 
61   633  233 
62   50   663 
63   491  586 
64   40   759 
65   52   661 
66   583  347 
67   4    561 
68   685  219 
69   4    698 
70   45   585 
71   21   632 
72   595  285 
73   110  746 
74   54   673 
75   722  254 
76   628  343 
77   71   658 
78   569  423 
79   68   954 
80   562  351 
81   490  444 
82   496  387 
83   559  345 
84   615  332 
85   45   644 
86   753  373 
87   64   688 
88   645  437 
89   600  416 
90   28   755 
91   47   703 
92   81   686 
93   763  387 
94   712  367 
95   615  367 
96   580  360 
97   45   699 
98   526  442 
99   807  208 
100  190  831 
101  48   690 
DEMAND_SECTION
1    0   
2    1   
3    1   
4    1   
5    1   
6    1   
7    1   
8    1   
9    1   
10   1   
11   1   
12   1   
13   1   
14   1   
15   1   
16   1   
17   1   
18   1   
19   1   
20   1   
21   1   
22   1   
23   1   
24   1   
25   1   
26   1   
27   1   
28   1   
29   1   
30   1   
31   1   
32   1   
33   1   
34   1   
35   1   
36   1   
37   1   
38   1   
39   1   
40   1   
41   1   
42   1   
43   1   
44   1   
45   1   
46   1   
47   1   
48   1   
49   1   
50   1   
51   1   
52   1   
53   1   
54   1   
55   1   
56   1   
57   1   
58   1   
59   1   
60   1   
61   1   
62   1   
63   1   
64   1   
65   1   
66   1   
67   1   
68   1   
69   1   
70   1   
71   1   
72   1   
73   1   
74   1   
75   1   
76   1   
77   1   
78   1   
79   1   
80   1   
81   1   
82   1   
83   1   
84   1   
85   1   
86   1   
87   1   
88   1   
89   1   
90   1   
91   1   
92   1   
93   1   
94   1   
95   1   
96   1   
97   1   
98   1   
99   1   
100  1   
101  1   
DEPOT_SECTION
1
-1
EOF
