data/CVRPLIB/Vrp-Set-XML100/solutions/XML100_1213_08.sol
Route #1: 88 87 25 12 41 13 47 18 94
Route #2: 21 4 91 86 90 96 100 46 73
Route #3: 27 65 36 83 48 10 75 40 95
Route #4: 76 64 61 19 32 54 70 84 55
Route #5: 79 82
Route #6: 52 39 31 1 44 43 3 60 71
Route #7: 5 93 33 38 85 92 49 53 56
Route #8: 72 15 34 30 9 78 99 62 22
Route #9: 59 57 63 29 89 26 50 68 7
Route #10: 51 67 98 37 74 8 24 58 16
Route #11: 17 2 69 23 45 66 20 28 14
Route #12: 35 77 42 6 97 80 11 81
Cost 9679
